n=20;
t=24;
profit=[9 6 6 5 7 10 7 10 2 5 7 1 3 10 8 8 2 10 9 9];
length=[3 1 2 2 2 1 1 1 5 3 5 1 1 5 2 3 4 4 3 4];
min_deliver=[7 18 11 4 8 5 12 4 7 8 19 13 2 10 13 5 6 4 7 20];
max_deliver=[12 19 12 5 9 9 16 6 8 13 19 16 2 12 13 8 10 4 9 20];
surface=[5 1 3 2 3 1 1 3 2 1 3 5 1 1 1 1 5 5 5 2];
surface_capacity=5;
